1
0 0
1 1
19
20
0 1
1 2
18
19
0 2
1 3
17
18
0 3
1 4
16
17
0 4
1 5
15
16
0 5
1 6
14
15
0 6
1 7
13
14
0 7
1 8
12
13
0 8
1 9
11
12
0 9
1 10
10
11
0 10
1 11
9
10
0 11
1 12
8
9
0 12
1 13
7
8
0 13
1 14
6
7
0 14
1 15
5
6
0 15
1 16
4
5
0 16
1 17
3
4
0 17
1 18
2
3
0 18
1 19
1
2
0 19
1 20
0
1
